(declare-const a Real)
(declare-const b Real)
(declare-const c Real)
(assert (= (+ a b c) 3))
(assert (> a 0))
(assert (> b 0))
(assert (> c 0))
(assert (not (<= (+ (* -1556480 a (pow c 4)) (* -1556480 b (pow a 4)) (* -1508300 c (pow b 4)) (* -311296 a (pow b 4)) (* -311296 b (pow c 4)) (* -286720 (pow a 2) (pow c 3)) (* -286720 (pow a 3) (pow b 2)) (* -263116 c (pow a 4)) (* 204800 (pow b 3) (pow c 2)) (* 286720 (pow a 2) (pow b 3)) (* 286720 (pow b 2) (pow c 3)) (* 778240 (pow a 3) (pow c 2)) (* 9720 c (pow a 2) (pow (+ (/ 2 3) (* (/ 1 3) b)) 6)) (* 1376256 a b (pow c 3)) (* 1568976 a c (pow b 3)) (* 1568976 b c (pow a 3))) 0)))
(check-sat)
(get-model)
(exit)